307256
305518
305518
304592
304592
300825
300825
300825
300663
295033
295033
291292
291292
289678
288394
288394
285471
285471
284236
284236
279970
279970
279970
279542
275304
275304
275304
273275
273275
273275
273275
271693
271693
271693
270258
268225
268225
268225
268014
268014
268014
265224
265224
257799
257799
257430
257430
257430
255267
255267
255267
253655
253655
253655
253655
253655
253565
253565
251722
251722
251698
249909
249592
248844
244992
244992
244992
244992
244992
244992
244992
244992
244992
244992
244992
244992
244500
244500
242129
242129
242129
242129
241255
239699
239699
239699
239302
236703
236703
236703
234425
234425
234425
234425
232833
232446
232446
232446
232228
228474
